(set-info :origin "SVCOMP13 benchmarks generated by Arie Gurfinkel")
(set-info :status sat)
(set-logic HORN)
(declare-fun cp-rel-entry () Bool)
(declare-fun cp-rel-bb2.i.i16.i.i () Bool)
(declare-fun cp-rel-bb1.i.i (Real Real Real) Bool)
(assert |cp-rel-entry|)
(assert (forall ((?A Real) (?B Real) (?C Real) (?D Bool) )(let (($x298787 (and |cp-rel-entry| (<= ?C 0.0) (>= ?B 1.0) (<= ?B 1.0) (>= ?A 1.0) (<= ?A 1.0) (= ?D true) (>= ?C 0.0))))
(=> $x298787 (|cp-rel-bb1.i.i| ?A ?B ?C))))
)
(assert (forall ((?A Real) (?B Real) (?C Real) (?D Real) (?E Real) (?F Real) (?G Bool) (?H Bool) (?I Bool) (?J Bool) (?K Bool) (?L Bool) (?M Real) (?N Real) (?O Bool) (?P Bool) (?Q Bool) (?R Bool) (?S Bool) (?T Bool) (?U Bool) (?V Real) (?W Bool) (?X Bool) (?Y Bool) (?Z Bool) (?A1 Bool) (?B1 Bool) (?C1 Real) (?D1 Real) (?E1 Real) (?F1 Real) (?G1 Bool) (?H1 Bool) (?I1 Bool) (?J1 Bool) (?K1 Bool) (?L1 Bool) (?M1 Bool) (?N1 Bool) (?O1 Bool) (?P1 Bool) (?Q1 Real) (?R1 Bool) (?S1 Bool) (?T1 Bool) (?U1 Real) (?V1 Bool) (?W1 Real) (?X1 Real) (?Y1 Real) (?Z1 Bool) (?A2 Real) (?B2 Bool) (?C2 Bool) (?D2 Bool) (?E2 Bool) (?F2 Bool) (?G2 Bool) )(let (($x376803 (|cp-rel-bb1.i.i| ?D ?E ?F)))
(let (($x396616 (= ?T1 (and ?C2 ?G2))))
(let (($x553819 (or (not ?G) (and ?H ?I (not ?J)))))
(let (($x181647 (or (not ?G) ?I)))
(let (($x142106 (not ?K)))
(let (($x489400 (or $x142106 (and ?G ?L (<= ?M ?N) (>= ?M ?N)) (and ?H ?O ?J (<= ?M ?A) (>= ?M ?A)))))
(let (($x256496 (or $x142106 (and ?L (not ?O)) (and ?O (not ?L)))))
(let (($x866386 (or (not ?P) (and ?K ?Q ?R))))
(let (($x301340 (or (not ?P) ?Q)))
(let (($x450508 (not ?S)))
(let (($x238740 (or $x450508 (and ?P ?T ?U (<= ?V ?B) (>= ?V ?B)) (and ?K ?W (not ?R) (<= ?V 1.0) (>= ?V 1.0)))))
(let (($x246929 (or $x450508 (and ?T (not ?W)) (and ?W (not ?T)))))
(let (($x563785 (or (not ?X) (and ?S ?Y (not ?Z)))))
(let (($x310194 (or (not ?X) ?Y)))
(let (($x423930 (>= ?E1 ?M)))
(let (($x259532 (<= ?E1 ?M)))
(let (($x389033 (and ?P ?H1 (not ?U) (<= ?C1 0.0) (>= ?C1 0.0) (<= ?D1 0.0) (>= ?D1 0.0) $x259532 $x423930)))
(let (($x648523 (>= ?D1 ?V)))
(let (($x201869 (<= ?D1 ?V)))
(let (($x242965 (and ?S ?G1 ?Z (<= ?C1 ?C) (>= ?C1 ?C) $x201869 $x648523 $x259532 $x423930)))
(let (($x159692 (and ?X ?B1 (<= ?C1 ?C) (>= ?C1 ?C) $x201869 $x648523 (<= ?E1 ?F1) (>= ?E1 ?F1))))
(let (($x607535 (not ?A1)))
(let (($x848535 (or $x607535 (and ?B1 (not ?G1) (not ?H1)) (and ?G1 (not ?B1) (not ?H1)) (and ?H1 (not ?B1) (not ?G1)))))
(let (($x256357 (or (not ?I1) (and ?A1 ?J1 ?K1))))
(let (($x236580 (or (not ?I1) ?J1)))
(let (($x545610 (or (not ?L1) (and ?I1 ?M1 (not ?N1)))))
(let (($x368336 (or (not ?L1) ?M1)))
(let (($x621721 (or (not ?O1) (and ?L1 ?P1 (<= ?Q1 ?C1) (>= ?Q1 ?C1)) (and ?I1 ?R1 ?N1 (<= ?Q1 1.0) (>= ?Q1 1.0)) (and ?A1 ?S1 (not ?K1) (<= ?Q1 ?C1) (>= ?Q1 ?C1)))))
(let (($x279103 (or (not ?O1) (and ?P1 (not ?R1) (not ?S1)) (and ?R1 (not ?P1) (not ?S1)) (and ?S1 (not ?P1) (not ?R1)))))
(let (($x748513 (= ?O1 true)))
(let (($x866426 (= ?J (= ?U1 0.0))))
(let (($x384300 (= ?W1 (ite ?V1 1.0 0.0))))
(let (($x450950 (= ?R (= ?X1 0.0))))
(let (($x357263 (= ?U (= ?Y1 0.0))))
(let (($x143756 (= ?Z1 (not (<= ?M 0.0)))))
(let (($x213239 (= ?A2 (+ (~ 1.0) ?M))))
(let (($x255985 (= ?F1 (ite ?Z1 ?A2 ?M))))
(let (($x326027 (= ?B2 (not (= ?D1 0.0)))))
(let (($x63613 (= ?C2 (= ?C1 0.0))))
(let (($x82122 (= ?K1 (and ?B2 ?C2))))
(let (($x573275 (= ?N1 (not (<= ?E1 1.0)))))
(let (($x536727 (= ?D2 (= ?E1 2.0))))
(let (($x511073 (= ?E2 (= ?Q1 0.0))))
(let (($x615228 (= ?F2 (or ?E2 ?D2))))
(let (($x541676 (= ?G2 (not ?F2))))
(let (($x797916 (and (|cp-rel-bb1.i.i| ?A ?B ?C) $x541676 $x615228 $x511073 $x536727 $x573275 $x82122 $x63613 $x326027 $x255985 $x213239 $x143756 (= ?Z (= ?C 0.0)) $x357263 $x450950 (= ?N (+ ?W1 ?A)) $x384300 (= ?V1 (not (<= 2.0 ?A))) $x866426 (>= ?F ?Q1) (<= ?F ?Q1) (>= ?E ?D1) (<= ?E ?D1) (>= ?D ?E1) (<= ?D ?E1) (not (= ?T1 true)) $x748513 $x279103 $x621721 $x368336 $x545610 $x236580 $x256357 $x848535 (or $x607535 $x159692 $x242965 $x389033) $x310194 $x563785 $x246929 $x238740 $x301340 $x866386 $x256496 $x489400 $x181647 $x553819 $x396616)))
(=> $x797916 $x376803))))))))))))))))))))))))))))))))))))))))))))))))
)
(assert (forall ((?A Real) (?B Real) (?C Real) (?D Bool) (?E Bool) (?F Bool) (?G Bool) (?H Bool) (?I Bool) (?J Real) (?K Real) (?L Bool) (?M Bool) (?N Bool) (?O Bool) (?P Bool) (?Q Bool) (?R Bool) (?S Real) (?T Bool) (?U Bool) (?V Bool) (?W Bool) (?X Bool) (?Y Bool) (?Z Real) (?A1 Real) (?B1 Real) (?C1 Real) (?D1 Bool) (?E1 Bool) (?F1 Bool) (?G1 Bool) (?H1 Bool) (?I1 Bool) (?J1 Bool) (?K1 Bool) (?L1 Bool) (?M1 Bool) (?N1 Real) (?O1 Bool) (?P1 Bool) (?Q1 Bool) (?R1 Real) (?S1 Bool) (?T1 Real) (?U1 Real) (?V1 Real) (?W1 Bool) (?X1 Real) (?Y1 Bool) (?Z1 Bool) (?A2 Bool) (?B2 Bool) (?C2 Bool) (?D2 Bool) )(let (($x396616 (= ?Q1 (and ?Z1 ?D2))))
(let (($x553819 (or (not ?D) (and ?E ?F (not ?G)))))
(let (($x181647 (or (not ?D) ?F)))
(let (($x142106 (not ?H)))
(let (($x232817 (or $x142106 (and ?D ?I (<= ?J ?K) (>= ?J ?K)) (and ?E ?L ?G (<= ?J ?A) (>= ?J ?A)))))
(let (($x256496 (or $x142106 (and ?I (not ?L)) (and ?L (not ?I)))))
(let (($x866386 (or (not ?M) (and ?H ?N ?O))))
(let (($x301340 (or (not ?M) ?N)))
(let (($x450508 (not ?P)))
(let (($x407988 (or $x450508 (and ?M ?Q ?R (<= ?S ?B) (>= ?S ?B)) (and ?H ?T (not ?O) (<= ?S 1.0) (>= ?S 1.0)))))
(let (($x246929 (or $x450508 (and ?Q (not ?T)) (and ?T (not ?Q)))))
(let (($x563785 (or (not ?U) (and ?P ?V (not ?W)))))
(let (($x310194 (or (not ?U) ?V)))
(let (($x423930 (>= ?B1 ?J)))
(let (($x259532 (<= ?B1 ?J)))
(let (($x389033 (and ?M ?E1 (not ?R) (<= ?Z 0.0) (>= ?Z 0.0) (<= ?A1 0.0) (>= ?A1 0.0) $x259532 $x423930)))
(let (($x648523 (>= ?A1 ?S)))
(let (($x201869 (<= ?A1 ?S)))
(let (($x52390 (and ?P ?D1 ?W (<= ?Z ?C) (>= ?Z ?C) $x201869 $x648523 $x259532 $x423930)))
(let (($x343553 (and ?U ?Y (<= ?Z ?C) (>= ?Z ?C) $x201869 $x648523 (<= ?B1 ?C1) (>= ?B1 ?C1))))
(let (($x607535 (not ?X)))
(let (($x848535 (or $x607535 (and ?Y (not ?D1) (not ?E1)) (and ?D1 (not ?Y) (not ?E1)) (and ?E1 (not ?Y) (not ?D1)))))
(let (($x256357 (or (not ?F1) (and ?X ?G1 ?H1))))
(let (($x236580 (or (not ?F1) ?G1)))
(let (($x545610 (or (not ?I1) (and ?F1 ?J1 (not ?K1)))))
(let (($x368336 (or (not ?I1) ?J1)))
(let (($x621721 (or (not ?L1) (and ?I1 ?M1 (<= ?N1 ?Z) (>= ?N1 ?Z)) (and ?F1 ?O1 ?K1 (<= ?N1 1.0) (>= ?N1 1.0)) (and ?X ?P1 (not ?H1) (<= ?N1 ?Z) (>= ?N1 ?Z)))))
(let (($x279103 (or (not ?L1) (and ?M1 (not ?O1) (not ?P1)) (and ?O1 (not ?M1) (not ?P1)) (and ?P1 (not ?M1) (not ?O1)))))
(let (($x748513 (= ?L1 true)))
(let (($x475947 (= ?Q1 true)))
(let (($x866426 (= ?G (= ?R1 0.0))))
(let (($x384300 (= ?T1 (ite ?S1 1.0 0.0))))
(let (($x450950 (= ?O (= ?U1 0.0))))
(let (($x357263 (= ?R (= ?V1 0.0))))
(let (($x143756 (= ?W1 (not (<= ?J 0.0)))))
(let (($x213239 (= ?X1 (+ (~ 1.0) ?J))))
(let (($x255985 (= ?C1 (ite ?W1 ?X1 ?J))))
(let (($x326027 (= ?Y1 (not (= ?A1 0.0)))))
(let (($x63613 (= ?Z1 (= ?Z 0.0))))
(let (($x82122 (= ?H1 (and ?Y1 ?Z1))))
(let (($x573275 (= ?K1 (not (<= ?B1 1.0)))))
(let (($x536727 (= ?A2 (= ?B1 2.0))))
(let (($x511073 (= ?B2 (= ?N1 0.0))))
(let (($x615228 (= ?C2 (or ?B2 ?A2))))
(let (($x541676 (= ?D2 (not ?C2))))
(let (($x376803 (|cp-rel-bb1.i.i| ?A ?B ?C)))
(let (($x233544 (and $x376803 $x541676 $x615228 $x511073 $x536727 $x573275 $x82122 $x63613 $x326027 $x255985 $x213239 $x143756 (= ?W (= ?C 0.0)) $x357263 $x450950 (= ?K (+ ?T1 ?A)) $x384300 (= ?S1 (not (<= 2.0 ?A))) $x866426 $x475947 $x748513 $x279103 $x621721 $x368336 $x545610 $x236580 $x256357 $x848535 (or $x607535 $x343553 $x52390 $x389033) $x310194 $x563785 $x246929 $x407988 $x301340 $x866386 $x256496 $x232817 $x181647 $x553819 $x396616)))
(=> $x233544 |cp-rel-bb2.i.i16.i.i|)))))))))))))))))))))))))))))))))))))))))))))))))
)
(assert (not cp-rel-bb2.i.i16.i.i))
(check-sat)
